49
120
83	2
82	2
81	3
80	3
78	1
77	2
76	1
75	1
73	2
72	2
70	2
69	1
68	1
66	3
63	3
62	2
61	1
60	5
59	3
58	4
57	4
56	2
55	4
53	1
51	3
50	1
48	3
47	2
46	1
45	1
44	2
43	1
42	2
41	1
39	1
38	2
37	4
36	1
35	1
34	2
33	3
32	1
30	2
29	2
28	2
27	2
26	2
25	1
24	2
